
Gurobi 6.5.2 (win64) logging started 07/22/16 21:05:46


Gurobi 6.5.2 (win64) logging started 07/22/16 21:05:46

Optimize a model with 695 rows, 156 columns and 1504 nonzeros
Coefficient statistics:
  Matrix range    [1e+00, 1e+00]
  Objective range [2e+00, 4e+02]
  Bounds range    [1e+00, 1e+00]
  RHS range       [1e+00, 1e+00]
Found heuristic solution: objective 72
Presolve removed 620 rows and 22 columns
Presolve time: 0.00s
Presolved: 75 rows, 134 columns, 412 nonzeros
Variable types: 0 continuous, 134 integer (134 binary)

Root relaxation: objective 1.402000e+03, 54 iterations, 0.00 seconds

    Nodes    |    Current Node    |     Objective Bounds      |     Work
 Expl Unexpl |  Obj  Depth IntInf | Incumbent    BestBd   Gap | It/Node Time

*    0     0               0    1402.0000000 1402.00000  0.00%     -    0s

Explored 0 nodes (54 simplex iterations) in 0.00 seconds
Thread count was 8 (of 8 available processors)

Optimal solution found (tolerance 1.00e-04)
Best objective 1.402000000000e+03, best bound 1.402000000000e+03, gap 0.0%

Wrote requested result file 'H1\instance4\\Results4.lp'

